W=7;
H=7;

MAX_TIME=W*H;
MAX_TRACKS=7;

TARGET=(1,7);

TRAINS=[(7,5,TOP),(7,3,TOP)];
DECOYS=[(5,4,LEFT)];

INIT_POS=[
(1,6,STRAIGHT_RL),
(1,7,STRAIGHT_RL),
(3,2,SWITCH_R_L_T),
(3,3,STRAIGHT_RL),
(3,4,STRAIGHT_RL),
(3,5,STRAIGHT_RL),
(3,6,SWITCH_L_R_T),
(5,2,ESWITCH_L_R_D),
(5,3,STRAIGHT_RL),
(5,4,STRAIGHT_RL),
(5,5,ESWITCH_L_R_D),
(5,6,STRAIGHT_RL),
(7,3,STRAIGHT_TD),
(7,5,STRAIGHT_TD),
];
TUNNEL_PAIRS=[
  (3, 7, LEFT, 5, 7, LEFT),
  (3, 1, RIGHT, 5, 1, RIGHT),
];

GATES=[];
ACTIVATIONS=[];

DSWITCHES=[];
STATIONS=[];
